p cnf 480 696
4 -61 112 131 0
4 -61 112 -131 0
61 -27 119 132 0
61 -27 119 -132 0
9 -98 43 133 0
9 -98 43 -133 0
66 27 -107 134 0
66 27 -107 -134 0
43 -30 112 135 0
43 -30 112 -135 0
47 126 76 136 0
47 126 76 -136 0
-3 -58 7 137 0
-3 -58 7 -137 0
-27 -61 -119 138 0
-27 -61 -119 -138 0
16 26 63 139 0
16 26 63 -139 0
88 54 -125 140 0
88 54 -125 -140 0
37 -94 -65 141 0
37 -94 -65 -141 0
-32 -25 45 142 0
-32 -25 45 -142 0
-39 -82 60 143 0
-39 -82 60 -143 0
114 64 106 144 0
114 64 106 -144 0
-105 -94 -34 145 0
-105 -94 -34 -145 0
113 -28 14 146 0
113 -28 14 -146 0
-98 -43 -9 147 0
-98 -43 -9 -147 0
103 -90 6 148 0
103 -90 6 -148 0
-96 -129 38 149 0
-96 -129 38 -149 0
-71 -55 -12 150 0
-71 -55 -12 -150 0
110 48 -127 151 0
110 48 -127 -151 0
98 -9 43 152 0
98 -9 43 -152 0
91 54 59 153 0
91 54 59 -153 0
127 110 -48 154 0
127 110 -48 -154 0
117 123 45 155 0
117 123 45 -155 0
42 -74 49 156 0
42 -74 49 -156 0
-33 -55 -4 157 0
-33 -55 -4 -157 0
113 -14 28 158 0
113 -14 28 -158 0
22 -116 -86 159 0
22 -116 -86 -159 0
-93 -7 -20 160 0
-93 -7 -20 -160 0
126 -24 115 161 0
126 -24 115 -161 0
-10 78 -130 162 0
-10 78 -130 -162 0
-21 13 -63 163 0
-21 13 -63 -163 0
-10 -119 -99 164 0
-10 -119 -99 -164 0
-11 9 -14 165 0
-11 9 -14 -165 0
-64 -76 -67 166 0
-64 -76 -67 -166 0
16 -63 -26 167 0
16 -63 -26 -167 0
59 -91 -54 168 0
59 -91 -54 -168 0
-111 -23 -93 169 0
-111 -23 -93 -169 0
54 -59 -91 170 0
54 -59 -91 -170 0
-29 -117 30 171 0
-29 -117 30 -171 0
57 77 95 172 0
57 77 95 -172 0
39 -82 -60 173 0
39 -82 -60 -173 0
-26 -120 84 174 0
-26 -120 84 -174 0
-97 59 -82 175 0
-97 59 -82 -175 0
-77 -95 57 176 0
-77 -95 57 -176 0
128 130 -92 177 0
128 130 -92 -177 0
-28 -113 -14 178 0
-28 -113 -14 -178 0
-101 41 18 179 0
-101 41 18 -179 0
-21 -83 123 180 0
-21 -83 123 -180 0
17 31 96 181 0
17 31 96 -181 0
66 3 81 182 0
66 3 81 -182 0
82 39 60 183 0
82 39 60 -183 0
-130 -128 -92 184 0
-130 -128 -92 -184 0
121 -32 120 185 0
121 -32 120 -185 0
-19 71 44 186 0
-19 71 44 -186 0
-5 -121 -58 187 0
-5 -121 -58 -187 0
-102 -70 -60 188 0
-102 -70 -60 -188 0
-73 50 189 190 0
-73 50 189 -190 0
-73 50 -189 191 0
-73 50 -189 -191 0
116 95 -101 192 0
116 95 -101 -192 0
103 -99 -50 193 0
103 -99 -50 -193 0
-119 99 10 194 0
-119 99 10 -194 0
54 125 -88 195 0
54 125 -88 -195 0
80 -8 -124 196 0
80 -8 -124 -196 0
115 -126 24 197 0
115 -126 24 -197 0
34 -83 97 198 0
34 -83 97 -198 0
-126 -115 -24 199 0
-126 -115 -24 -199 0
-128 -69 87 200 0
-128 -69 87 -200 0
-39 -60 82 201 0
-39 -60 82 -201 0
102 -60 70 202 0
102 -60 70 -202 0
109 -113 -16 203 0
109 -113 -16 -203 0
-65 51 -38 204 0
-65 51 -38 -204 0
-76 -126 47 205 0
-76 -126 47 -205 0
-53 68 -79 206 0
-53 68 -79 -206 0
-36 106 -15 207 0
-36 106 -15 -207 0
116 86 22 208 0
116 86 22 -208 0
-15 46 84 209 0
-15 46 84 -209 0
125 88 -54 210 0
125 88 -54 -210 0
-13 -63 21 211 0
-13 -63 21 -211 0
38 51 65 212 0
38 51 65 -212 0
76 -64 67 213 0
76 -64 67 -213 0
109 90 118 214 0
109 90 118 -214 0
42 -125 80 215 0
42 -125 80 -215 0
-12 57 36 216 0
-12 57 36 -216 0
85 -1 -25 217 0
85 -1 -25 -217 0
-58 121 5 218 0
-58 121 5 -218 0
12 55 -71 219 0
12 55 -71 -219 0
-85 -1 25 220 0
-85 -1 25 -220 0
65 94 37 221 0
65 94 37 -221 0
18 -19 -53 222 0
18 -19 -53 -222 0
-31 -96 17 223 0
-31 -96 17 -223 0
-46 -15 -84 224 0
-46 -15 -84 -224 0
-87 69 -128 225 0
-87 69 -128 -225 0
29 -117 -30 226 0
29 -117 -30 -226 0
-6 -103 -90 227 0
-6 -103 -90 -227 0
-48 -20 89 228 0
-48 -20 89 -228 0
91 85 81 229 0
91 85 81 -229 0
70 56 107 230 0
70 56 107 -230 0
-8 -80 124 231 0
-8 -80 124 -231 0
-42 -125 -80 232 0
-42 -125 -80 -232 0
87 -33 129 233 0
87 -33 129 -233 0
-72 41 88 234 0
-72 41 88 -234 0
24 35 -67 235 0
24 35 -67 -235 0
29 -72 -122 236 0
29 -72 -122 -236 0
-81 3 -66 237 0
-81 3 -66 -237 0
-75 -1 -74 238 0
-75 -1 -74 -238 0
-18 101 41 239 0
-18 101 41 -239 0
48 -110 127 240 0
48 -110 127 -240 0
-41 18 101 241 0
-41 18 101 -241 0
40 -102 51 242 0
40 -102 51 -242 0
21 123 83 243 0
21 123 83 -243 0
-37 -94 65 244 0
-37 -94 65 -244 0
20 48 89 245 0
20 48 89 -245 0
-103 50 -99 246 0
-103 50 -99 -246 0
3 58 7 247 0
3 58 7 -247 0
28 75 -68 248 0
28 75 -68 -248 0
91 -81 -85 249 0
91 -81 -85 -249 0
121 58 -5 250 0
121 58 -5 -250 0
-104 124 -49 251 0
-104 124 -49 -251 0
69 87 128 252 0
69 87 128 -252 0
-56 -35 108 253 0
-56 -35 108 -253 0
-84 26 -120 254 0
-84 26 -120 -254 0
-24 -35 -67 255 0
-24 -35 -67 -255 0
111 62 -5 256 0
111 62 -5 -256 0
-77 13 -52 257 0
-77 13 -52 -257 0
-101 -18 -41 258 0
-101 -18 -41 -258 0
88 72 -41 259 0
88 72 -41 -259 0
94 34 -105 260 0
94 34 -105 -260 0
-107 -27 -66 261 0
-107 -27 -66 -261 0
-123 -117 45 262 0
-123 -117 45 -262 0
-55 12 71 263 0
-55 12 71 -263 0
14 -11 -9 264 0
14 -11 -9 -264 0
-87 128 -69 265 0
-87 128 -69 -265 0
-128 92 130 266 0
-128 92 130 -266 0
106 -114 -64 267 0
106 -114 -64 -267 0
73 105 -79 268 0
73 105 -79 -268 0
114 -106 -64 269 0
114 -106 -64 -269 0
-49 -124 104 270 0
-49 -124 104 -270 0
119 99 -10 271 0
119 99 -10 -271 0
-106 -15 36 272 0
-106 -15 36 -272 0
63 -16 -26 273 0
63 -16 -26 -273 0
-29 -30 117 274 0
-29 -30 117 -274 0
-127 118 114 275 0
-127 118 114 -275 0
-2 -17 46 276 0
-2 -17 46 -276 0
13 77 52 277 0
13 77 52 -277 0
107 -66 27 278 0
107 -66 27 -278 0
12 -36 57 279 0
12 -36 57 -279 0
-79 -68 53 280 0
-79 -68 53 -280 0
23 -8 -52 281 0
23 -8 -52 -281 0
110 -37 -86 282 0
110 -37 -86 -282 0
89 6 -40 283 0
89 6 -40 -283 0
-83 21 -123 284 0
-83 21 -123 -284 0
111 -93 23 285 0
111 -93 23 -285 0
-49 -42 -74 286 0
-49 -42 -74 -286 0
-97 -34 -83 287 0
-97 -34 -83 -287 0
33 -129 87 288 0
33 -129 87 -288 0
-80 125 42 289 0
-80 125 42 -289 0
51 102 -40 290 0
51 102 -40 -290 0
-21 63 -13 291 0
-21 63 -13 -291 0
-16 26 -63 292 0
-16 26 -63 -292 0
118 -90 -109 293 0
118 -90 -109 -293 0
100 -44 -122 294 0
100 -44 -122 -294 0
-109 -118 90 295 0
-109 -118 90 -295 0
25 1 85 296 0
25 1 85 -296 0
-101 -116 -95 297 0
-101 -116 -95 -297 0
-59 82 -97 298 0
-59 82 -97 -298 0
79 -73 105 299 0
79 -73 105 -299 0
-49 42 74 300 0
-49 42 74 -300 0
113 109 16 301 0
113 109 16 -301 0
-54 -59 91 302 0
-54 -59 91 -302 0
-22 -86 116 303 0
-22 -86 116 -303 0
-51 -38 65 304 0
-51 -38 65 -304 0
-44 122 -100 305 0
-44 122 -100 -305 0
-80 -124 8 306 0
-80 -124 8 -306 0
2 -17 -46 307 0
2 -17 -46 -307 0
-57 36 12 308 0
-57 36 12 -308 0
-79 -73 -105 309 0
-79 -73 -105 -309 0
-6 89 40 310 0
-6 89 40 -310 0
-41 -88 -72 311 0
-41 -88 -72 -311 0
105 34 -94 312 0
105 34 -94 -312 0
20 -48 -89 313 0
20 -48 -89 -313 0
52 -13 -77 314 0
52 -13 -77 -314 0
122 -72 -29 315 0
122 -72 -29 -315 0
53 19 18 316 0
53 19 18 -316 0
108 92 -39 317 0
108 92 -39 -317 0
130 78 10 318 0
130 78 10 -318 0
-91 -85 81 319 0
-91 -85 81 -319 0
-86 37 -110 320 0
-86 37 -110 -320 0
14 -113 28 321 0
14 -113 28 -321 0
-2 98 -100 322 0
-2 98 -100 -322 0
40 -51 102 323 0
40 -51 102 -323 0
-121 -120 -32 324 0
-121 -120 -32 -324 0
70 -56 -107 325 0
70 -56 -107 -325 0
48 -89 -20 326 0
48 -89 -20 -326 0
56 -108 -35 327 0
56 -108 -35 -327 0
-112 -43 -30 328 0
-112 -43 -30 -328 0
-78 -10 130 329 0
-78 -10 130 -329 0
95 -57 -77 330 0
95 -57 -77 -330 0
86 -110 -37 331 0
86 -110 -37 -331 0
94 -65 -37 332 0
94 -65 -37 -332 0
120 32 -121 333 0
120 32 -121 -333 0
77 -57 -95 334 0
77 -57 -95 -334 0
-32 -45 25 335 0
-32 -45 25 -335 0
80 8 124 336 0
80 8 124 -336 0
80 125 -42 337 0
80 125 -42 -337 0
-25 -45 32 338 0
-25 -45 32 -338 0
-114 -127 -118 339 0
-114 -127 -118 -339 0
15 -36 -106 340 0
15 -36 -106 -340 0
126 -76 -47 341 0
126 -76 -47 -341 0
17 -2 -46 342 0
17 -2 -46 -342 0
69 104 -31 343 0
69 104 -31 -343 0
92 128 -130 344 0
92 128 -130 -344 0
-124 49 -104 345 0
-124 49 -104 -345 0
70 -102 60 346 0
70 -102 60 -346 0
-110 -127 -48 347 0
-110 -127 -48 -347 0
117 -45 -123 348 0
117 -45 -123 -348 0
60 -70 102 349 0
60 -70 102 -349 0
22 115 -62 350 0
22 115 -62 -350 0
-87 129 33 351 0
-87 129 33 -351 0
-68 79 -53 352 0
-68 79 -53 -352 0
112 30 -43 353 0
112 30 -43 -353 0
-68 -28 -75 354 0
-68 -28 -75 -354 0
-112 30 43 355 0
-112 30 43 -355 0
-102 -40 -51 356 0
-102 -40 -51 -356 0
74 -1 75 357 0
74 -1 75 -357 0
-56 -108 35 358 0
-56 -108 35 -358 0
8 -23 -52 359 0
8 -23 -52 -359 0
97 -59 -82 360 0
97 -59 -82 -360 0
82 59 97 361 0
82 59 97 -361 0
-116 95 101 362 0
-116 95 101 -362 0
27 119 -61 363 0
27 119 -61 -363 0
64 -106 -114 364 0
64 -106 -114 -364 0
-12 55 71 365 0
-12 55 71 -365 0
-34 97 83 366 0
-34 97 83 -366 0
-81 -91 85 367 0
-81 -91 85 -367 0
6 -89 40 368 0
6 -89 40 -368 0
100 122 44 369 0
100 122 44 -369 0
103 50 99 370 0
103 50 99 -370 0
-6 90 103 371 0
-6 90 103 -371 0
-111 23 93 372 0
-111 23 93 -372 0
49 -42 74 373 0
49 -42 74 -373 0
-7 93 20 374 0
-7 93 20 -374 0
21 13 63 375 0
21 13 63 -375 0
-96 31 -17 376 0
-96 31 -17 -376 0
11 9 14 377 0
11 9 14 -377 0
-45 123 -117 378 0
-45 123 -117 -378 0
3 -58 -7 379 0
3 -58 -7 -379 0
5 -62 111 380 0
5 -62 111 -380 0
-6 -89 -40 381 0
-6 -89 -40 -381 0
72 -29 -122 382 0
72 -29 -122 -382 0
108 39 -92 383 0
108 39 -92 -383 0
105 -34 94 384 0
105 -34 94 -384 0
-11 47 78 385 0
-11 47 78 -385 0
72 41 -88 386 0
72 41 -88 -386 0
74 -75 1 387 0
74 -75 1 -387 0
90 -103 6 388 0
90 -103 6 -388 0
-46 15 84 389 0
-46 15 84 -389 0
32 121 -120 390 0
32 121 -120 -390 0
-18 19 -53 391 0
-18 19 -53 -391 0
96 -38 -129 392 0
96 -38 -129 -392 0
19 -44 71 393 0
19 -44 71 -393 0
-3 66 -81 394 0
-3 66 -81 -394 0
1 -85 -25 395 0
1 -85 -25 -395 0
-9 11 -14 396 0
-9 11 -14 -396 0
79 73 -105 397 0
79 73 -105 -397 0
-3 -66 81 398 0
-3 -66 81 -398 0
109 -118 -90 399 0
109 -118 -90 -399 0
-28 75 68 400 0
-28 75 68 -400 0
1 75 -74 401 0
1 75 -74 -401 0
10 -130 -78 402 0
10 -130 -78 -402 0
84 120 26 403 0
84 120 26 -403 0
-22 62 115 404 0
-22 62 115 -404 0
-115 -22 -62 405 0
-115 -22 -62 -405 0
-4 -112 -61 406 0
-4 -112 -61 -406 0
106 36 15 407 0
106 36 15 -407 0
4 61 -112 408 0
4 61 -112 -408 0
126 -115 24 409 0
126 -115 24 -409 0
76 -47 -126 410 0
76 -47 -126 -410 0
-99 119 10 411 0
-99 119 10 -411 0
7 93 -20 412 0
7 93 -20 -412 0
118 -114 127 413 0
118 -114 127 -413 0
-24 35 67 414 0
-24 35 67 -414 0
61 27 -119 415 0
61 27 -119 -415 0
-5 -62 -111 416 0
-5 -62 -111 -416 0
7 20 -93 417 0
7 20 -93 -417 0
-23 93 111 418 0
-23 93 111 -418 0
-98 -2 100 419 0
-98 -2 100 -419 0
-4 61 112 420 0
-4 61 112 -420 0
79 68 53 421 0
79 68 53 -421 0
-98 -100 2 422 0
-98 -100 2 -422 0
73 -50 423 424 0
73 -50 423 -424 0
73 -50 -423 425 0
73 -50 -423 -425 0
37 110 86 426 0
37 110 86 -426 0
-76 64 67 427 0
-76 64 67 -427 0
52 23 8 428 0
52 23 8 -428 0
-87 -129 -33 429 0
-87 -129 -33 -429 0
104 49 124 430 0
104 49 124 -430 0
-92 -108 -39 431 0
-92 -108 -39 -431 0
-35 24 67 432 0
-35 24 67 -432 0
96 -17 -31 433 0
96 -17 -31 -433 0
-84 46 15 434 0
-84 46 15 -434 0
117 30 29 435 0
117 30 29 -435 0
-36 -12 -57 436 0
-36 -12 -57 -436 0
-22 -116 86 437 0
-22 -116 86 -437 0
-18 -19 53 438 0
-18 -19 53 -438 0
-21 83 -123 439 0
-21 83 -123 -439 0
-115 62 22 440 0
-115 62 22 -440 0
9 -43 98 441 0
9 -43 98 -441 0
44 -71 19 442 0
44 -71 19 -442 0
-54 -125 -88 443 0
-54 -125 -88 -443 0
104 -69 31 444 0
104 -69 31 -444 0
33 -4 55 445 0
33 -4 55 -445 0
5 62 -111 446 0
5 62 -111 -446 0
-3 58 -7 447 0
-3 58 -7 -447 0
107 -56 -70 448 0
107 -56 -70 -448 0
98 2 100 449 0
98 2 100 -449 0
96 129 38 450 0
96 129 38 -450 0
17 46 2 451 0
17 46 2 -451 0
-50 -103 99 452 0
-50 -103 99 -452 0
35 108 56 453 0
35 108 56 -453 0
-96 -38 129 454 0
-96 -38 129 -454 0
76 -67 64 455 0
76 -67 64 -455 0
-78 47 11 456 0
-78 47 11 -456 0
4 -33 55 457 0
4 -33 55 -457 0
92 39 -108 458 0
92 39 -108 -458 0
-8 -23 52 459 0
-8 -23 52 -459 0
38 -51 -65 460 0
38 -51 -65 -460 0
77 -52 -13 461 0
77 -52 -13 -461 0
11 -47 78 462 0
11 -47 78 -462 0
-19 -44 -71 463 0
-19 -44 -71 -463 0
-104 69 31 464 0
-104 69 31 -464 0
116 -95 101 465 0
116 -95 101 -465 0
-31 -104 -69 466 0
-31 -104 -69 -466 0
68 28 -75 467 0
68 28 -75 -467 0
-97 83 34 468 0
-97 83 34 -468 0
-26 120 -84 469 0
-26 120 -84 -469 0
122 29 72 470 0
122 29 72 -470 0
-11 -47 -78 471 0
-11 -47 -78 -471 0
-27 66 107 472 0
-27 66 107 -472 0
113 -109 -16 473 0
113 -109 -16 -473 0
114 127 -118 474 0
114 127 -118 -474 0
-113 16 -109 475 0
-113 16 -109 -475 0
32 45 25 476 0
32 45 25 -476 0
-122 -100 44 477 0
-122 -100 44 -477 0
-107 56 -70 478 0
-107 56 -70 -478 0
33 -55 4 479 0
33 -55 4 -479 0
5 58 -121 480 0
5 58 -121 -480 0

